%%% static parameters %%%
timespan = 1;
Fact = [2];
Distr1 = [5];
Distr2 = [10];
Clients_N = [100];
Demand_W = [15];
Lt0 = [4];
Lt1 = [4];
SS_ = [0.85];
DS_D = [8];
K = [200];
MA = [500];
%%% dynamic parameters %%%
lost_ratio_sales_ret_th = 0.995690176683205;
lost_ratio_sales_ret_w = 19;
lost_ratio_sales_dis_th = 0.6413274138016207;
lost_ratio_sales_dis_w = 22;
lost_ratio_sales_fac_th = 0.3765533241483001;
lost_ratio_sales_fac_w = 21;
stock_customer_MA_mean_relative_th = 0.020384358010743786;
stock_customer_MA_mean_relative_w = 65;
stock_distributor_MA_mean_relative_th = 0.34149114246802814;
stock_distributor_MA_mean_relative_w = 95;
stock_retailer_MA_mean_relative_th = 0.23133961916541812;
stock_retailer_MA_mean_relative_w = 2;
stock_factory_MA_mean_relative_th = 0.6345737523182382;
stock_factory_MA_mean_relative_w = 86;
